\ SCIP STATISTICS
\   Problem name     : t_neos5
\   Variables        : 63 (53 binary, 0 integer, 0 implicit integer, 10 continuous)
\   Constraints      : 64
Minimize
 Obj: +1 t_d52 +1 t_d1 +1 t_d2 +1 t_d3 +1 t_d4 +1 t_d5 +1 t_d6 +1 t_d7 +1 t_d8 +1 t_d9 +1 t_d10 +1 t_d11
      +1 t_d12 +1 t_d13 +1 t_d14 +1 t_d15 +1 t_d16 +1 t_d17 +1 t_d18 +1 t_d19 +1 t_d20 +1 t_d21 +1 t_d22
      +1 t_d23 +1 t_d24 +1 t_d25 +1 t_d26 +1 t_d27 +1 t_d28 +1 t_d29 +1 t_d30 +1 t_d31 +1 t_d32 +1 t_d33
      +1 t_d34 +1 t_d35 +1 t_d36 +1 t_d37 +1 t_d38 +1 t_d39 +1 t_d40 +1 t_d41 +1 t_d42 +1 t_d43 +1 t_d44
      +1 t_d45 +1 t_d46 +1 t_d47 +1 t_d48 +1 t_d49 +1 t_d50 +1 t_d51 +1 t_d53 +1 t_d54 +1 t_d55 +1 t_d56
      +1 t_d57 +1 t_d58 +1 t_d59 +1 t_d60 +1 t_d61 +1 t_d62 +1 t_d63
Subject to
 R1: +1 t_d1 +1 t_d2 +1 t_d3 +1 t_d4 +1 t_d5 +1 t_d6 +1 t_d7 +1 t_d8 +1 t_d9 +1 t_d10 +1 t_d11 +1 t_d12
  +1 t_d13 +1 t_d14 +1 t_d15 +1 t_d16 +1 t_d17 +1 t_d18 +1 t_d19 +1 t_d20 +1 t_d21 +1 t_d22 +1 t_d23 +1 t_d24
  +1 t_d25 +1 t_d26 +1 t_d27 +1 t_d28 +1 t_d29 +1 t_d30 +1 t_d31 +1 t_d32 >= +8
 R56: +1 t_d2 +1 t_d3 +1 t_d5 +1 t_d8 +1 t_d9 +1 t_d12 +1 t_d14 +1 t_d15 +1 t_d18 +1 t_d19 +1 t_d21 +1 t_d24
  +1 t_d25 +1 t_d28 +1 t_d30 +1 t_d31 +1 t_d34 +1 t_d35 +1 t_d37 +1 t_d40 +1 t_d41 +1 t_d44 +1 t_d46 +1 t_d47
  +1 t_d50 +1 t_d51 +1 t_d53 +1 t_d56 +1 t_d57 +1 t_d60 +1 t_d62 +1 t_d63 >= +5
 R3: +1 t_d52 +1 t_d1 +1 t_d2 +1 t_d3 +1 t_d4 +1 t_d5 +1 t_d6 +1 t_d7 +1 t_d8 +1 t_d17 +1 t_d18 +1 t_d19
  +1 t_d20 +1 t_d21 +1 t_d22 +1 t_d23 +1 t_d24 +1 t_d33 +1 t_d34 +1 t_d35 +1 t_d36 +1 t_d37 +1 t_d38 +1 t_d39
  +1 t_d40 +1 t_d49 +1 t_d50 +1 t_d51 +1 t_d53 +1 t_d54 +1 t_d55 +1 t_d56 >= +8
 R38: +1 t_d1 +1 t_d4 +1 t_d5 +1 t_d8 +1 t_d9 +1 t_d12 +1 t_d13 +1 t_d16 +1 t_d17 +1 t_d20 +1 t_d21 +1 t_d24
  +1 t_d25 +1 t_d28 +1 t_d29 +1 t_d32 +1 t_d34 +1 t_d35 +1 t_d38 +1 t_d39 +1 t_d42 +1 t_d43 +1 t_d46 +1 t_d47
  +1 t_d50 +1 t_d51 +1 t_d54 +1 t_d55 +1 t_d58 +1 t_d59 +1 t_d62 +1 t_d63 >= +6
 R30: +1 t_d52 +1 t_d1 +1 t_d2 +1 t_d7 +1 t_d8 +1 t_d9 +1 t_d10 +1 t_d15 +1 t_d16 +1 t_d19 +1 t_d20 +1 t_d21
  +1 t_d22 +1 t_d27 +1 t_d28 +1 t_d29 +1 t_d30 +1 t_d33 +1 t_d34 +1 t_d39 +1 t_d40 +1 t_d41 +1 t_d42 +1 t_d47
  +1 t_d48 +1 t_d51 +1 t_d53 +1 t_d54 +1 t_d59 +1 t_d60 +1 t_d61 +1 t_d62 >= +6
 R22: +1 t_d52 +1 t_d1 +1 t_d2 +1 t_d3 +1 t_d4 +1 t_d5 +1 t_d6 +1 t_d7 +1 t_d8 +1 t_d25 +1 t_d26 +1 t_d27
  +1 t_d28 +1 t_d29 +1 t_d30 +1 t_d31 +1 t_d32 +1 t_d41 +1 t_d42 +1 t_d43 +1 t_d44 +1 t_d45 +1 t_d46 +1 t_d47
  +1 t_d48 +1 t_d49 +1 t_d50 +1 t_d51 +1 t_d53 +1 t_d54 +1 t_d55 +1 t_d56 >= +6
 R41: +1 t_d52 +1 t_d1 +1 t_d4 +1 t_d6 +1 t_d7 +1 t_d9 +1 t_d12 +1 t_d14 +1 t_d15 +1 t_d17 +1 t_d20 +1 t_d22
  +1 t_d23 +1 t_d25 +1 t_d28 +1 t_d30 +1 t_d31 +1 t_d33 +1 t_d36 +1 t_d38 +1 t_d39 +1 t_d41 +1 t_d44 +1 t_d46
  +1 t_d47 +1 t_d49 +1 t_d54 +1 t_d55 +1 t_d57 +1 t_d60 +1 t_d62 +1 t_d63 >= +6
 R13: +1 t_d3 +1 t_d4 +1 t_d7 +1 t_d8 +1 t_d11 +1 t_d12 +1 t_d15 +1 t_d16 +1 t_d19 +1 t_d20 +1 t_d23 +1 t_d24
  +1 t_d27 +1 t_d28 +1 t_d31 +1 t_d32 +1 t_d33 +1 t_d34 +1 t_d37 +1 t_d38 +1 t_d41 +1 t_d42 +1 t_d45 +1 t_d46
  +1 t_d49 +1 t_d50 +1 t_d53 +1 t_d54 +1 t_d57 +1 t_d58 +1 t_d61 +1 t_d62 >= +7
 R6: +1 t_d1 +1 t_d3 +1 t_d5 +1 t_d7 +1 t_d9 +1 t_d11 +1 t_d13 +1 t_d15 +1 t_d17 +1 t_d19 +1 t_d21 +1 t_d23
  +1 t_d25 +1 t_d27 +1 t_d29 +1 t_d31 +1 t_d33 +1 t_d35 +1 t_d37 +1 t_d39 +1 t_d41 +1 t_d43 +1 t_d45 +1 t_d47
  +1 t_d49 +1 t_d51 +1 t_d53 +1 t_d55 +1 t_d57 +1 t_d59 +1 t_d61 +1 t_d63 >= +8
 R10: +1 t_d52 +1 t_d5 +1 t_d6 +1 t_d7 +1 t_d8 +1 t_d13 +1 t_d14 +1 t_d15 +1 t_d16 +1 t_d21 +1 t_d22 +1 t_d23
  +1 t_d24 +1 t_d29 +1 t_d30 +1 t_d31 +1 t_d32 +1 t_d33 +1 t_d34 +1 t_d35 +1 t_d36 +1 t_d41 +1 t_d42 +1 t_d43
  +1 t_d44 +1 t_d49 +1 t_d50 +1 t_d51 +1 t_d57 +1 t_d58 +1 t_d59 +1 t_d60 >= +7
 R11: +1 t_d52 +1 t_d5 +1 t_d6 +1 t_d7 +1 t_d8 +1 t_d13 +1 t_d14 +1 t_d15 +1 t_d16 +1 t_d17 +1 t_d18 +1 t_d19
  +1 t_d20 +1 t_d25 +1 t_d26 +1 t_d27 +1 t_d28 +1 t_d37 +1 t_d38 +1 t_d39 +1 t_d40 +1 t_d45 +1 t_d46 +1 t_d47
  +1 t_d48 +1 t_d49 +1 t_d50 +1 t_d51 +1 t_d57 +1 t_d58 +1 t_d59 +1 t_d60 >= +7
 R28: +1 t_d52 +1 t_d1 +1 t_d2 +1 t_d5 +1 t_d6 +1 t_d11 +1 t_d12 +1 t_d15 +1 t_d16 +1 t_d19 +1 t_d20 +1 t_d23
  +1 t_d24 +1 t_d25 +1 t_d26 +1 t_d29 +1 t_d30 +1 t_d33 +1 t_d34 +1 t_d37 +1 t_d38 +1 t_d43 +1 t_d44 +1 t_d47
  +1 t_d48 +1 t_d51 +1 t_d55 +1 t_d56 +1 t_d57 +1 t_d58 +1 t_d61 +1 t_d62 >= +6
 R42: +1 t_d5 +1 t_d6 +1 t_d7 +1 t_d8 +1 t_d9 +1 t_d10 +1 t_d11 +1 t_d12 +1 t_d17 +1 t_d18 +1 t_d19 +1 t_d20
  +1 t_d29 +1 t_d30 +1 t_d31 +1 t_d32 +1 t_d33 +1 t_d34 +1 t_d35 +1 t_d36 +1 t_d45 +1 t_d46 +1 t_d47 +1 t_d48
  +1 t_d53 +1 t_d54 +1 t_d55 +1 t_d56 +1 t_d57 +1 t_d58 +1 t_d59 +1 t_d60 >= +5
 R26: +1 t_d1 +1 t_d2 +1 t_d5 +1 t_d6 +1 t_d9 +1 t_d10 +1 t_d13 +1 t_d14 +1 t_d19 +1 t_d20 +1 t_d23 +1 t_d24
  +1 t_d27 +1 t_d28 +1 t_d31 +1 t_d32 +1 t_d35 +1 t_d36 +1 t_d39 +1 t_d40 +1 t_d43 +1 t_d44 +1 t_d47 +1 t_d48
  +1 t_d49 +1 t_d50 +1 t_d53 +1 t_d54 +1 t_d57 +1 t_d58 +1 t_d61 +1 t_d62 >= +6
 R36: +1 t_d52 +1 t_d1 +1 t_d3 +1 t_d6 +1 t_d8 +1 t_d9 +1 t_d11 +1 t_d14 +1 t_d16 +1 t_d18 +1 t_d20 +1 t_d21
  +1 t_d23 +1 t_d26 +1 t_d28 +1 t_d29 +1 t_d31 +1 t_d33 +1 t_d35 +1 t_d38 +1 t_d40 +1 t_d41 +1 t_d43 +1 t_d46
  +1 t_d48 +1 t_d50 +1 t_d53 +1 t_d55 +1 t_d58 +1 t_d60 +1 t_d61 +1 t_d63 >= +6
 R46: +1 t_d3 +1 t_d4 +1 t_d5 +1 t_d6 +1 t_d9 +1 t_d10 +1 t_d15 +1 t_d16 +1 t_d17 +1 t_d18 +1 t_d23 +1 t_d24
  +1 t_d27 +1 t_d28 +1 t_d29 +1 t_d30 +1 t_d35 +1 t_d36 +1 t_d37 +1 t_d38 +1 t_d41 +1 t_d42 +1 t_d47 +1 t_d48
  +1 t_d49 +1 t_d50 +1 t_d55 +1 t_d56 +1 t_d59 +1 t_d60 +1 t_d61 +1 t_d62 >= +5
 R18: +1 t_d2 +1 t_d4 +1 t_d6 +1 t_d8 +1 t_d10 +1 t_d12 +1 t_d14 +1 t_d16 +1 t_d17 +1 t_d19 +1 t_d21 +1 t_d23
  +1 t_d25 +1 t_d27 +1 t_d29 +1 t_d31 +1 t_d34 +1 t_d36 +1 t_d38 +1 t_d40 +1 t_d42 +1 t_d44 +1 t_d46 +1 t_d48
  +1 t_d49 +1 t_d51 +1 t_d53 +1 t_d55 +1 t_d57 +1 t_d59 +1 t_d61 +1 t_d63 >= +7
 R51: +1 t_d2 +1 t_d3 +1 t_d6 +1 t_d7 +1 t_d10 +1 t_d11 +1 t_d14 +1 t_d15 +1 t_d17 +1 t_d20 +1 t_d21 +1 t_d24
  +1 t_d25 +1 t_d28 +1 t_d29 +1 t_d32 +1 t_d33 +1 t_d36 +1 t_d37 +1 t_d40 +1 t_d41 +1 t_d44 +1 t_d45 +1 t_d48
  +1 t_d50 +1 t_d51 +1 t_d54 +1 t_d55 +1 t_d58 +1 t_d59 +1 t_d62 +1 t_d63 >= +5
 R33: +1 t_d52 +1 t_d1 +1 t_d3 +1 t_d5 +1 t_d7 +1 t_d10 +1 t_d12 +1 t_d14 +1 t_d16 +1 t_d17 +1 t_d19 +1 t_d21
  +1 t_d23 +1 t_d26 +1 t_d28 +1 t_d30 +1 t_d32 +1 t_d34 +1 t_d36 +1 t_d38 +1 t_d40 +1 t_d41 +1 t_d43 +1 t_d45
  +1 t_d47 +1 t_d50 +1 t_d54 +1 t_d56 +1 t_d57 +1 t_d59 +1 t_d61 +1 t_d63 >= +6
 R23: +1 t_d52 +1 t_d1 +1 t_d2 +1 t_d3 +1 t_d4 +1 t_d9 +1 t_d10 +1 t_d11 +1 t_d12 +1 t_d21 +1 t_d22 +1 t_d23
  +1 t_d24 +1 t_d29 +1 t_d30 +1 t_d31 +1 t_d32 +1 t_d37 +1 t_d38 +1 t_d39 +1 t_d40 +1 t_d45 +1 t_d46 +1 t_d47
  +1 t_d48 +1 t_d49 +1 t_d50 +1 t_d51 +1 t_d57 +1 t_d58 +1 t_d59 +1 t_d60 >= +6
 R15: +1 t_d52 +1 t_d3 +1 t_d4 +1 t_d7 +1 t_d8 +1 t_d9 +1 t_d10 +1 t_d13 +1 t_d14 +1 t_d19 +1 t_d20 +1 t_d23
  +1 t_d24 +1 t_d25 +1 t_d26 +1 t_d29 +1 t_d30 +1 t_d35 +1 t_d36 +1 t_d39 +1 t_d40 +1 t_d41 +1 t_d42 +1 t_d45
  +1 t_d46 +1 t_d51 +1 t_d55 +1 t_d56 +1 t_d57 +1 t_d58 +1 t_d61 +1 t_d62 >= +7
 R4: +1 t_d52 +1 t_d1 +1 t_d2 +1 t_d3 +1 t_d4 +1 t_d9 +1 t_d10 +1 t_d11 +1 t_d12 +1 t_d17 +1 t_d18 +1 t_d19
  +1 t_d20 +1 t_d25 +1 t_d26 +1 t_d27 +1 t_d28 +1 t_d33 +1 t_d34 +1 t_d35 +1 t_d36 +1 t_d41 +1 t_d42 +1 t_d43
  +1 t_d44 +1 t_d49 +1 t_d50 +1 t_d51 +1 t_d57 +1 t_d58 +1 t_d59 +1 t_d60 >= +8
 R43: +1 t_d52 +1 t_d3 +1 t_d4 +1 t_d7 +1 t_d8 +1 t_d9 +1 t_d10 +1 t_d13 +1 t_d14 +1 t_d17 +1 t_d18 +1 t_d21
  +1 t_d22 +1 t_d27 +1 t_d28 +1 t_d31 +1 t_d32 +1 t_d33 +1 t_d34 +1 t_d37 +1 t_d38 +1 t_d43 +1 t_d44 +1 t_d47
  +1 t_d48 +1 t_d51 +1 t_d55 +1 t_d56 +1 t_d57 +1 t_d58 +1 t_d61 +1 t_d62 >= +5
 R2: +1 t_d1 +1 t_d2 +1 t_d3 +1 t_d4 +1 t_d5 +1 t_d6 +1 t_d7 +1 t_d8 +1 t_d9 +1 t_d10 +1 t_d11 +1 t_d12
  +1 t_d13 +1 t_d14 +1 t_d15 +1 t_d16 +1 t_d33 +1 t_d34 +1 t_d35 +1 t_d36 +1 t_d37 +1 t_d38 +1 t_d39 +1 t_d40
  +1 t_d41 +1 t_d42 +1 t_d43 +1 t_d44 +1 t_d45 +1 t_d46 +1 t_d47 +1 t_d48 >= +8
 R48: +1 t_d52 +1 t_d2 +1 t_d4 +1 t_d5 +1 t_d7 +1 t_d10 +1 t_d12 +1 t_d13 +1 t_d15 +1 t_d17 +1 t_d19 +1 t_d22
  +1 t_d24 +1 t_d25 +1 t_d27 +1 t_d30 +1 t_d32 +1 t_d33 +1 t_d35 +1 t_d38 +1 t_d40 +1 t_d41 +1 t_d43 +1 t_d46
  +1 t_d48 +1 t_d50 +1 t_d53 +1 t_d55 +1 t_d58 +1 t_d60 +1 t_d61 +1 t_d63 >= +5
 R25: +1 t_d1 +1 t_d2 +1 t_d3 +1 t_d4 +1 t_d13 +1 t_d14 +1 t_d15 +1 t_d16 +1 t_d21 +1 t_d22 +1 t_d23 +1 t_d24
  +1 t_d25 +1 t_d26 +1 t_d27 +1 t_d28 +1 t_d33 +1 t_d34 +1 t_d35 +1 t_d36 +1 t_d45 +1 t_d46 +1 t_d47 +1 t_d48
  +1 t_d53 +1 t_d54 +1 t_d55 +1 t_d56 +1 t_d57 +1 t_d58 +1 t_d59 +1 t_d60 >= +6
 R24: +1 t_d1 +1 t_d2 +1 t_d3 +1 t_d4 +1 t_d13 +1 t_d14 +1 t_d15 +1 t_d16 +1 t_d17 +1 t_d18 +1 t_d19 +1 t_d20
  +1 t_d29 +1 t_d30 +1 t_d31 +1 t_d32 +1 t_d37 +1 t_d38 +1 t_d39 +1 t_d40 +1 t_d41 +1 t_d42 +1 t_d43 +1 t_d44
  +1 t_d53 +1 t_d54 +1 t_d55 +1 t_d56 +1 t_d57 +1 t_d58 +1 t_d59 +1 t_d60 >= +6
 R16: +1 t_d52 +1 t_d3 +1 t_d4 +1 t_d5 +1 t_d6 +1 t_d11 +1 t_d12 +1 t_d13 +1 t_d14 +1 t_d19 +1 t_d20 +1 t_d21
  +1 t_d22 +1 t_d27 +1 t_d28 +1 t_d29 +1 t_d30 +1 t_d35 +1 t_d36 +1 t_d37 +1 t_d38 +1 t_d43 +1 t_d44 +1 t_d45
  +1 t_d46 +1 t_d51 +1 t_d53 +1 t_d54 +1 t_d59 +1 t_d60 +1 t_d61 +1 t_d62 >= +7
 R9: +1 t_d52 +1 t_d9 +1 t_d10 +1 t_d11 +1 t_d12 +1 t_d13 +1 t_d14 +1 t_d15 +1 t_d16 +1 t_d17 +1 t_d18
  +1 t_d19 +1 t_d20 +1 t_d21 +1 t_d22 +1 t_d23 +1 t_d24 +1 t_d41 +1 t_d42 +1 t_d43 +1 t_d44 +1 t_d45 +1 t_d46
  +1 t_d47 +1 t_d48 +1 t_d49 +1 t_d50 +1 t_d51 +1 t_d53 +1 t_d54 +1 t_d55 +1 t_d56 >= +7
 R8: +1 t_d52 +1 t_d9 +1 t_d10 +1 t_d11 +1 t_d12 +1 t_d13 +1 t_d14 +1 t_d15 +1 t_d16 +1 t_d25 +1 t_d26
  +1 t_d27 +1 t_d28 +1 t_d29 +1 t_d30 +1 t_d31 +1 t_d32 +1 t_d33 +1 t_d34 +1 t_d35 +1 t_d36 +1 t_d37 +1 t_d38
  +1 t_d39 +1 t_d40 +1 t_d49 +1 t_d50 +1 t_d51 +1 t_d53 +1 t_d54 +1 t_d55 +1 t_d56 >= +7
 R55: +1 t_d52 +1 t_d2 +1 t_d3 +1 t_d5 +1 t_d8 +1 t_d10 +1 t_d11 +1 t_d13 +1 t_d16 +1 t_d17 +1 t_d20 +1 t_d22
  +1 t_d23 +1 t_d25 +1 t_d28 +1 t_d30 +1 t_d31 +1 t_d34 +1 t_d35 +1 t_d37 +1 t_d40 +1 t_d42 +1 t_d43 +1 t_d45
  +1 t_d48 +1 t_d49 +1 t_d54 +1 t_d55 +1 t_d57 +1 t_d60 +1 t_d62 +1 t_d63 >= +5
 R47: +1 t_d52 +1 t_d2 +1 t_d4 +1 t_d6 +1 t_d8 +1 t_d9 +1 t_d11 +1 t_d13 +1 t_d15 +1 t_d17 +1 t_d19 +1 t_d21
  +1 t_d23 +1 t_d26 +1 t_d28 +1 t_d30 +1 t_d32 +1 t_d33 +1 t_d35 +1 t_d37 +1 t_d39 +1 t_d42 +1 t_d44 +1 t_d46
  +1 t_d48 +1 t_d50 +1 t_d54 +1 t_d56 +1 t_d57 +1 t_d59 +1 t_d61 +1 t_d63 >= +5
 R40: +1 t_d52 +1 t_d1 +1 t_d4 +1 t_d5 +1 t_d8 +1 t_d10 +1 t_d11 +1 t_d14 +1 t_d15 +1 t_d17 +1 t_d20 +1 t_d21
  +1 t_d24 +1 t_d26 +1 t_d27 +1 t_d30 +1 t_d31 +1 t_d33 +1 t_d36 +1 t_d37 +1 t_d40 +1 t_d42 +1 t_d43 +1 t_d46
  +1 t_d47 +1 t_d49 +1 t_d53 +1 t_d56 +1 t_d58 +1 t_d59 +1 t_d62 +1 t_d63 >= +6
 R39: +1 t_d1 +1 t_d4 +1 t_d5 +1 t_d8 +1 t_d9 +1 t_d12 +1 t_d13 +1 t_d16 +1 t_d18 +1 t_d19 +1 t_d22 +1 t_d23
  +1 t_d26 +1 t_d27 +1 t_d30 +1 t_d31 +1 t_d33 +1 t_d36 +1 t_d37 +1 t_d40 +1 t_d41 +1 t_d44 +1 t_d45 +1 t_d48
  +1 t_d50 +1 t_d51 +1 t_d54 +1 t_d55 +1 t_d58 +1 t_d59 +1 t_d62 +1 t_d63 >= +6
 R37: +1 t_d1 +1 t_d3 +1 t_d6 +1 t_d8 +1 t_d10 +1 t_d12 +1 t_d13 +1 t_d15 +1 t_d17 +1 t_d19 +1 t_d22 +1 t_d24
  +1 t_d26 +1 t_d28 +1 t_d29 +1 t_d31 +1 t_d33 +1 t_d35 +1 t_d38 +1 t_d40 +1 t_d42 +1 t_d44 +1 t_d45 +1 t_d47
  +1 t_d49 +1 t_d51 +1 t_d54 +1 t_d56 +1 t_d58 +1 t_d60 +1 t_d61 +1 t_d63 >= +6
 R29: +1 t_d52 +1 t_d1 +1 t_d2 +1 t_d7 +1 t_d8 +1 t_d9 +1 t_d10 +1 t_d15 +1 t_d16 +1 t_d17 +1 t_d18 +1 t_d23
  +1 t_d24 +1 t_d25 +1 t_d26 +1 t_d31 +1 t_d32 +1 t_d35 +1 t_d36 +1 t_d37 +1 t_d38 +1 t_d43 +1 t_d44 +1 t_d45
  +1 t_d46 +1 t_d51 +1 t_d53 +1 t_d54 +1 t_d59 +1 t_d60 +1 t_d61 +1 t_d62 >= +6
 R17: +1 t_d2 +1 t_d4 +1 t_d6 +1 t_d8 +1 t_d10 +1 t_d12 +1 t_d14 +1 t_d16 +1 t_d18 +1 t_d20 +1 t_d22 +1 t_d24
  +1 t_d26 +1 t_d28 +1 t_d30 +1 t_d32 +1 t_d33 +1 t_d35 +1 t_d37 +1 t_d39 +1 t_d41 +1 t_d43 +1 t_d45 +1 t_d47
  +1 t_d49 +1 t_d51 +1 t_d53 +1 t_d55 +1 t_d57 +1 t_d59 +1 t_d61 +1 t_d63 >= +7
 R12: +1 t_d5 +1 t_d6 +1 t_d7 +1 t_d8 +1 t_d9 +1 t_d10 +1 t_d11 +1 t_d12 +1 t_d21 +1 t_d22 +1 t_d23 +1 t_d24
  +1 t_d25 +1 t_d26 +1 t_d27 +1 t_d28 +1 t_d37 +1 t_d38 +1 t_d39 +1 t_d40 +1 t_d41 +1 t_d42 +1 t_d43 +1 t_d44
  +1 t_d53 +1 t_d54 +1 t_d55 +1 t_d56 +1 t_d57 +1 t_d58 +1 t_d59 +1 t_d60 >= +7
 R44: +1 t_d52 +1 t_d3 +1 t_d4 +1 t_d5 +1 t_d6 +1 t_d11 +1 t_d12 +1 t_d13 +1 t_d14 +1 t_d17 +1 t_d18 +1 t_d23
  +1 t_d24 +1 t_d25 +1 t_d26 +1 t_d31 +1 t_d32 +1 t_d33 +1 t_d34 +1 t_d39 +1 t_d40 +1 t_d41 +1 t_d42 +1 t_d47
  +1 t_d48 +1 t_d51 +1 t_d53 +1 t_d54 +1 t_d59 +1 t_d60 +1 t_d61 +1 t_d62 >= +5
 R45: +1 t_d3 +1 t_d4 +1 t_d5 +1 t_d6 +1 t_d9 +1 t_d10 +1 t_d15 +1 t_d16 +1 t_d19 +1 t_d20 +1 t_d21 +1 t_d22
  +1 t_d25 +1 t_d26 +1 t_d31 +1 t_d32 +1 t_d33 +1 t_d34 +1 t_d39 +1 t_d40 +1 t_d43 +1 t_d44 +1 t_d45 +1 t_d46
  +1 t_d49 +1 t_d50 +1 t_d55 +1 t_d56 +1 t_d59 +1 t_d60 +1 t_d61 +1 t_d62 >= +5
 R35: +1 t_d52 +1 t_d1 +1 t_d3 +1 t_d6 +1 t_d8 +1 t_d9 +1 t_d11 +1 t_d14 +1 t_d16 +1 t_d17 +1 t_d19 +1 t_d22
  +1 t_d24 +1 t_d25 +1 t_d27 +1 t_d30 +1 t_d32 +1 t_d34 +1 t_d36 +1 t_d37 +1 t_d39 +1 t_d42 +1 t_d44 +1 t_d45
  +1 t_d47 +1 t_d50 +1 t_d53 +1 t_d55 +1 t_d58 +1 t_d60 +1 t_d61 +1 t_d63 >= +6
 R32: +1 t_d1 +1 t_d3 +1 t_d5 +1 t_d7 +1 t_d9 +1 t_d11 +1 t_d13 +1 t_d15 +1 t_d18 +1 t_d20 +1 t_d22 +1 t_d24
  +1 t_d26 +1 t_d28 +1 t_d30 +1 t_d32 +1 t_d34 +1 t_d36 +1 t_d38 +1 t_d40 +1 t_d42 +1 t_d44 +1 t_d46 +1 t_d48
  +1 t_d49 +1 t_d51 +1 t_d53 +1 t_d55 +1 t_d57 +1 t_d59 +1 t_d61 +1 t_d63 >= +6
 R21: +1 t_d2 +1 t_d3 +1 t_d6 +1 t_d7 +1 t_d10 +1 t_d11 +1 t_d14 +1 t_d15 +1 t_d18 +1 t_d19 +1 t_d22 +1 t_d23
  +1 t_d26 +1 t_d27 +1 t_d30 +1 t_d31 +1 t_d34 +1 t_d35 +1 t_d38 +1 t_d39 +1 t_d42 +1 t_d43 +1 t_d46 +1 t_d47
  +1 t_d50 +1 t_d51 +1 t_d54 +1 t_d55 +1 t_d58 +1 t_d59 +1 t_d62 +1 t_d63 >= +7
 R19: +1 t_d52 +1 t_d2 +1 t_d4 +1 t_d6 +1 t_d8 +1 t_d9 +1 t_d11 +1 t_d13 +1 t_d15 +1 t_d18 +1 t_d20 +1 t_d22
  +1 t_d24 +1 t_d25 +1 t_d27 +1 t_d29 +1 t_d31 +1 t_d34 +1 t_d36 +1 t_d38 +1 t_d40 +1 t_d41 +1 t_d43 +1 t_d45
  +1 t_d47 +1 t_d50 +1 t_d54 +1 t_d56 +1 t_d57 +1 t_d59 +1 t_d61 +1 t_d63 >= +7
 R7: +1 t_d17 +1 t_d18 +1 t_d19 +1 t_d20 +1 t_d21 +1 t_d22 +1 t_d23 +1 t_d24 +1 t_d25 +1 t_d26 +1 t_d27
  +1 t_d28 +1 t_d29 +1 t_d30 +1 t_d31 +1 t_d32 +1 t_d33 +1 t_d34 +1 t_d35 +1 t_d36 +1 t_d37 +1 t_d38 +1 t_d39
  +1 t_d40 +1 t_d41 +1 t_d42 +1 t_d43 +1 t_d44 +1 t_d45 +1 t_d46 +1 t_d47 +1 t_d48 >= +7
 R5: +1 t_d1 +1 t_d2 +1 t_d5 +1 t_d6 +1 t_d9 +1 t_d10 +1 t_d13 +1 t_d14 +1 t_d17 +1 t_d18 +1 t_d21 +1 t_d22
  +1 t_d25 +1 t_d26 +1 t_d29 +1 t_d30 +1 t_d33 +1 t_d34 +1 t_d37 +1 t_d38 +1 t_d41 +1 t_d42 +1 t_d45 +1 t_d46
  +1 t_d49 +1 t_d50 +1 t_d53 +1 t_d54 +1 t_d57 +1 t_d58 +1 t_d61 +1 t_d62 >= +8
 R20: +1 t_d52 +1 t_d2 +1 t_d4 +1 t_d5 +1 t_d7 +1 t_d10 +1 t_d12 +1 t_d13 +1 t_d15 +1 t_d18 +1 t_d20 +1 t_d21
  +1 t_d23 +1 t_d26 +1 t_d28 +1 t_d29 +1 t_d31 +1 t_d34 +1 t_d36 +1 t_d37 +1 t_d39 +1 t_d42 +1 t_d44 +1 t_d45
  +1 t_d47 +1 t_d50 +1 t_d53 +1 t_d55 +1 t_d58 +1 t_d60 +1 t_d61 +1 t_d63 >= +7
 R63: +1 t_d2 +1 t_d3 +1 t_d5 +1 t_d8 +1 t_d9 +1 t_d12 +1 t_d14 +1 t_d15 +1 t_d17 +1 t_d20 +1 t_d22 +1 t_d23
  +1 t_d26 +1 t_d27 +1 t_d29 +1 t_d32 +1 t_d33 +1 t_d36 +1 t_d38 +1 t_d39 +1 t_d42 +1 t_d43 +1 t_d45 +1 t_d48
  +1 t_d50 +1 t_d51 +1 t_d53 +1 t_d56 +1 t_d57 +1 t_d60 +1 t_d62 +1 t_d63 >= +3
 R57: +1 t_d1 +1 t_d2 +1 t_d7 +1 t_d8 +1 t_d11 +1 t_d12 +1 t_d13 +1 t_d14 +1 t_d19 +1 t_d20 +1 t_d21 +1 t_d22
  +1 t_d25 +1 t_d26 +1 t_d31 +1 t_d32 +1 t_d35 +1 t_d36 +1 t_d37 +1 t_d38 +1 t_d41 +1 t_d42 +1 t_d47 +1 t_d48
  +1 t_d49 +1 t_d50 +1 t_d55 +1 t_d56 +1 t_d59 +1 t_d60 +1 t_d61 +1 t_d62 >= +4
 R52: +1 t_d52 +1 t_d2 +1 t_d3 +1 t_d6 +1 t_d7 +1 t_d9 +1 t_d12 +1 t_d13 +1 t_d16 +1 t_d18 +1 t_d19 +1 t_d22
  +1 t_d23 +1 t_d25 +1 t_d28 +1 t_d29 +1 t_d32 +1 t_d33 +1 t_d36 +1 t_d37 +1 t_d40 +1 t_d42 +1 t_d43 +1 t_d46
  +1 t_d47 +1 t_d49 +1 t_d53 +1 t_d56 +1 t_d58 +1 t_d59 +1 t_d62 +1 t_d63 >= +5
 R34: +1 t_d52 +1 t_d1 +1 t_d3 +1 t_d5 +1 t_d7 +1 t_d10 +1 t_d12 +1 t_d14 +1 t_d16 +1 t_d18 +1 t_d20 +1 t_d22
  +1 t_d24 +1 t_d25 +1 t_d27 +1 t_d29 +1 t_d31 +1 t_d33 +1 t_d35 +1 t_d37 +1 t_d39 +1 t_d42 +1 t_d44 +1 t_d46
  +1 t_d48 +1 t_d50 +1 t_d54 +1 t_d56 +1 t_d57 +1 t_d59 +1 t_d61 +1 t_d63 >= +6
 R27: +1 t_d52 +1 t_d1 +1 t_d2 +1 t_d5 +1 t_d6 +1 t_d11 +1 t_d12 +1 t_d15 +1 t_d16 +1 t_d17 +1 t_d18 +1 t_d21
  +1 t_d22 +1 t_d27 +1 t_d28 +1 t_d31 +1 t_d32 +1 t_d35 +1 t_d36 +1 t_d39 +1 t_d40 +1 t_d41 +1 t_d42 +1 t_d45
  +1 t_d46 +1 t_d51 +1 t_d55 +1 t_d56 +1 t_d57 +1 t_d58 +1 t_d61 +1 t_d62 >= +6
 R14: +1 t_d3 +1 t_d4 +1 t_d7 +1 t_d8 +1 t_d11 +1 t_d12 +1 t_d15 +1 t_d16 +1 t_d17 +1 t_d18 +1 t_d21 +1 t_d22
  +1 t_d25 +1 t_d26 +1 t_d29 +1 t_d30 +1 t_d35 +1 t_d36 +1 t_d39 +1 t_d40 +1 t_d43 +1 t_d44 +1 t_d47 +1 t_d48
  +1 t_d49 +1 t_d50 +1 t_d53 +1 t_d54 +1 t_d57 +1 t_d58 +1 t_d61 +1 t_d62 >= +7
 R60: +1 t_d52 +1 t_d1 +1 t_d4 +1 t_d6 +1 t_d7 +1 t_d9 +1 t_d12 +1 t_d14 +1 t_d15 +1 t_d18 +1 t_d19 +1 t_d21
  +1 t_d24 +1 t_d26 +1 t_d27 +1 t_d29 +1 t_d32 +1 t_d34 +1 t_d35 +1 t_d37 +1 t_d40 +1 t_d42 +1 t_d43 +1 t_d45
  +1 t_d48 +1 t_d49 +1 t_d54 +1 t_d55 +1 t_d57 +1 t_d60 +1 t_d62 +1 t_d63 >= +4
 R59: +1 t_d52 +1 t_d1 +1 t_d4 +1 t_d5 +1 t_d8 +1 t_d10 +1 t_d11 +1 t_d14 +1 t_d15 +1 t_d18 +1 t_d19 +1 t_d22
  +1 t_d23 +1 t_d25 +1 t_d28 +1 t_d29 +1 t_d32 +1 t_d34 +1 t_d35 +1 t_d38 +1 t_d39 +1 t_d41 +1 t_d44 +1 t_d45
  +1 t_d48 +1 t_d49 +1 t_d53 +1 t_d56 +1 t_d58 +1 t_d59 +1 t_d62 +1 t_d63 >= +4
 R58: +1 t_d1 +1 t_d3 +1 t_d6 +1 t_d8 +1 t_d10 +1 t_d12 +1 t_d13 +1 t_d15 +1 t_d18 +1 t_d20 +1 t_d21 +1 t_d23
  +1 t_d25 +1 t_d27 +1 t_d30 +1 t_d32 +1 t_d34 +1 t_d36 +1 t_d37 +1 t_d39 +1 t_d41 +1 t_d43 +1 t_d46 +1 t_d48
  +1 t_d49 +1 t_d51 +1 t_d54 +1 t_d56 +1 t_d58 +1 t_d60 +1 t_d61 +1 t_d63 >= +4
 R53: +1 t_d52 +1 t_d2 +1 t_d3 +1 t_d6 +1 t_d7 +1 t_d9 +1 t_d12 +1 t_d13 +1 t_d16 +1 t_d17 +1 t_d20 +1 t_d21
  +1 t_d24 +1 t_d26 +1 t_d27 +1 t_d30 +1 t_d31 +1 t_d34 +1 t_d35 +1 t_d38 +1 t_d39 +1 t_d41 +1 t_d44 +1 t_d45
  +1 t_d48 +1 t_d49 +1 t_d53 +1 t_d56 +1 t_d58 +1 t_d59 +1 t_d62 +1 t_d63 >= +5
 R50: +1 t_d2 +1 t_d4 +1 t_d5 +1 t_d7 +1 t_d9 +1 t_d11 +1 t_d14 +1 t_d16 +1 t_d17 +1 t_d19 +1 t_d22 +1 t_d24
  +1 t_d26 +1 t_d28 +1 t_d29 +1 t_d31 +1 t_d34 +1 t_d36 +1 t_d37 +1 t_d39 +1 t_d41 +1 t_d43 +1 t_d46 +1 t_d48
  +1 t_d49 +1 t_d51 +1 t_d54 +1 t_d56 +1 t_d58 +1 t_d60 +1 t_d61 +1 t_d63 >= +5
 R31: +1 t_d1 +1 t_d2 +1 t_d7 +1 t_d8 +1 t_d11 +1 t_d12 +1 t_d13 +1 t_d14 +1 t_d17 +1 t_d18 +1 t_d23 +1 t_d24
  +1 t_d27 +1 t_d28 +1 t_d29 +1 t_d30 +1 t_d33 +1 t_d34 +1 t_d39 +1 t_d40 +1 t_d43 +1 t_d44 +1 t_d45 +1 t_d46
  +1 t_d49 +1 t_d50 +1 t_d55 +1 t_d56 +1 t_d59 +1 t_d60 +1 t_d61 +1 t_d62 >= +6
 R61: +1 t_d1 +1 t_d4 +1 t_d6 +1 t_d7 +1 t_d10 +1 t_d11 +1 t_d13 +1 t_d16 +1 t_d17 +1 t_d20 +1 t_d22 +1 t_d23
  +1 t_d26 +1 t_d27 +1 t_d29 +1 t_d32 +1 t_d34 +1 t_d35 +1 t_d37 +1 t_d40 +1 t_d41 +1 t_d44 +1 t_d46 +1 t_d47
  +1 t_d50 +1 t_d51 +1 t_d53 +1 t_d56 +1 t_d57 +1 t_d60 +1 t_d62 +1 t_d63 >= +4
 R54: +1 t_d52 +1 t_d2 +1 t_d3 +1 t_d5 +1 t_d8 +1 t_d10 +1 t_d11 +1 t_d13 +1 t_d16 +1 t_d18 +1 t_d19 +1 t_d21
  +1 t_d24 +1 t_d26 +1 t_d27 +1 t_d29 +1 t_d32 +1 t_d33 +1 t_d36 +1 t_d38 +1 t_d39 +1 t_d41 +1 t_d44 +1 t_d46
  +1 t_d47 +1 t_d49 +1 t_d54 +1 t_d55 +1 t_d57 +1 t_d60 +1 t_d62 +1 t_d63 >= +5
 R49: +1 t_d2 +1 t_d4 +1 t_d5 +1 t_d7 +1 t_d9 +1 t_d11 +1 t_d14 +1 t_d16 +1 t_d18 +1 t_d20 +1 t_d21 +1 t_d23
  +1 t_d25 +1 t_d27 +1 t_d30 +1 t_d32 +1 t_d33 +1 t_d35 +1 t_d38 +1 t_d40 +1 t_d42 +1 t_d44 +1 t_d45 +1 t_d47
  +1 t_d49 +1 t_d51 +1 t_d54 +1 t_d56 +1 t_d58 +1 t_d60 +1 t_d61 +1 t_d63 >= +5
 R62: +1 t_d1 +1 t_d4 +1 t_d6 +1 t_d7 +1 t_d10 +1 t_d11 +1 t_d13 +1 t_d16 +1 t_d18 +1 t_d19 +1 t_d21 +1 t_d24
  +1 t_d25 +1 t_d28 +1 t_d30 +1 t_d31 +1 t_d33 +1 t_d36 +1 t_d38 +1 t_d39 +1 t_d42 +1 t_d43 +1 t_d45 +1 t_d48
  +1 t_d50 +1 t_d51 +1 t_d53 +1 t_d56 +1 t_d57 +1 t_d60 +1 t_d62 +1 t_d63 >= +4
Bounds
 0 <= t_d52 <= 1
 0 <= t_d1 <= 1
 0 <= t_d2 <= 1
 0 <= t_d3 <= 1
 0 <= t_d4 <= 1
 0 <= t_d5 <= 1
 0 <= t_d6 <= 1
 0 <= t_d7 <= 1
 0 <= t_d8 <= 1
 0 <= t_d9 <= 1
 0 <= t_d10 <= 1
 0 <= t_d11 <= 1
 0 <= t_d12 <= 1
 0 <= t_d13 <= 1
 0 <= t_d14 <= 1
 0 <= t_d15 <= 1
 0 <= t_d16 <= 1
 0 <= t_d17 <= 1
 0 <= t_d18 <= 1
 0 <= t_d19 <= 1
 0 <= t_d20 <= 1
 0 <= t_d21 <= 1
 0 <= t_d22 <= 1
 0 <= t_d23 <= 1
 0 <= t_d24 <= 1
 0 <= t_d25 <= 1
 0 <= t_d26 <= 1
 0 <= t_d27 <= 1
 0 <= t_d28 <= 1
 0 <= t_d29 <= 1
 0 <= t_d30 <= 1
 0 <= t_d31 <= 1
 0 <= t_d32 <= 1
 0 <= t_d33 <= 1
 0 <= t_d34 <= 1
 0 <= t_d35 <= 1
 0 <= t_d36 <= 1
 0 <= t_d37 <= 1
 0 <= t_d38 <= 1
 0 <= t_d39 <= 1
 0 <= t_d40 <= 1
 0 <= t_d41 <= 1
 0 <= t_d42 <= 1
 0 <= t_d43 <= 1
 0 <= t_d44 <= 1
 0 <= t_d45 <= 1
 0 <= t_d46 <= 1
 0 <= t_d47 <= 1
 0 <= t_d48 <= 1
 0 <= t_d49 <= 1
 0 <= t_d50 <= 1
 0 <= t_d51 <= 1
 0 <= t_d53 <= 1
 0 <= t_d54 <= 1
 0 <= t_d55 <= 1
 0 <= t_d56 <= 1
 0 <= t_d57 <= 1
 0 <= t_d58 <= 1
 0 <= t_d59 <= 1
 0 <= t_d60 <= 1
 0 <= t_d61 <= 1
 0 <= t_d62 <= 1
 0 <= t_d63 <= 1
Binaries
 t_d52 t_d1 t_d2 t_d3 t_d4 t_d5 t_d6 t_d7 t_d8 t_d9 t_d10 t_d11 t_d12 t_d13 t_d14 t_d15 t_d16 t_d17 t_d18
 t_d19 t_d20 t_d21 t_d22 t_d23 t_d24 t_d25 t_d26 t_d27 t_d28 t_d29 t_d30 t_d31 t_d32 t_d33 t_d34 t_d35
 t_d36 t_d37 t_d38 t_d39 t_d40 t_d41 t_d42 t_d43 t_d44 t_d45 t_d46 t_d47 t_d48 t_d49 t_d50 t_d51 t_d53
End
